<number of tasks>
45

<cycle time>
138

<task times>
1 9
2 9
3 10
4 10
5 17
6 17
7 13
8 13
9 20
10 20
11 10
12 11
13 6
14 22
15 11
16 19
17 12
18 3
19 7
20 4
21 55
22 14
23 27
24 29
25 26
26 6
27 5
28 24
29 4
30 5
31 7
32 4
33 15
34 3
35 7
36 9
37 4
38 7
39 5
40 4
41 21
42 12
43 6
44 5
45 5

<precedence relations>
1,3
1,7
2,4
2,8
3,5
4,6
5,9
6,10
7,9
7,14
8,10
8,14
9,41
10,41
11,13
12,13
12,37
13,14
13,15
14,17
14,25
14,29
14,30
14,31
14,32
15,16
15,18
15,23
15,24
16,19
17,26
17,27
18,19
19,20
19,33
20,21
21,22
22,28
23,33
24,33
25,26
26,38
27,28
27,33
28,38
29,41
30,41
31,41
32,41
33,34
33,35
33,36
34,38
35,40
36,38
37,43
38,40
39,41
40,41
41,42
42,44
42,45

<setup times forward>
1,6:1
1,10:1
1,18:1
1,22:1
1,23:1
1,24:1
1,43:1
2,9:1
2,18:1
2,22:1
2,23:1
2,24:1
2,43:1
3,6:1
3,10:1
3,14:1
3,18:1
3,22:1
3,23:1
3,24:1
3,26:1
3,28:1
3,33:1
3,34:1
3,35:1
3,36:1
3,38:1
3,40:1
3,43:1
4,6:1
4,9:1
4,14:1
4,18:1
4,22:1
4,23:1
4,24:1
4,26:1
4,28:1
4,33:1
4,34:1
4,35:1
4,36:1
4,38:1
4,40:1
4,43:1
5,6:1
5,9:1
5,10:1
5,14:1
5,18:1
5,22:1
5,23:1
5,24:1
5,26:1
5,28:1
5,33:1
5,34:1
5,35:1
5,36:1
5,38:1
5,40:1
5,43:1
6,1:1
6,3:1
6,5:1
6,7:1
6,8:1
6,11:1
6,12:1
6,13:1
6,15:1
6,16:1
6,17:1
6,19:1
6,20:1
6,21:1
6,25:1
6,27:1
6,29:1
6,30:1
6,31:1
6,32:1
6,37:1
6,39:1
7,6:1
7,9:1
7,10:1
7,14:1
7,18:1
7,22:1
7,23:1
7,24:1
7,43:1
8,6:1
8,9:1
8,10:1
8,14:1
8,18:1
8,22:1
8,23:1
8,24:1
8,43:1
9,2:1
9,4:1
9,8:1
9,11:1
9,12:1
9,13:1
9,15:1
9,16:1
9,17:1
9,19:1
9,20:1
9,21:1
9,25:1
9,27:1
9,29:1
9,30:1
9,31:1
9,32:1
9,37:1
9,39:1
10,1:1
10,3:1
10,5:1
10,7:1
10,11:1
10,12:1
10,13:1
10,15:1
10,16:1
10,17:1
10,19:1
10,20:1
10,21:1
10,25:1
10,27:1
10,29:1
10,30:1
10,31:1
10,32:1
10,37:1
10,39:1
11,6:1
11,9:1
11,10:1
11,43:1
12,6:1
12,9:1
12,10:1
13,6:1
13,9:1
13,10:1
13,14:1
13,43:1
14,3:1
14,4:1
14,5:1
14,15:1
14,16:1
14,17:1
14,19:1
14,20:1
14,21:1
14,25:1
14,29:1
14,30:1
14,31:1
14,32:1
14,37:1
14,39:1
15,6:1
15,9:1
15,10:1
15,14:1
15,18:1
15,23:1
15,24:1
15,26:1
15,43:1
16,6:1
16,9:1
16,10:1
16,14:1
16,18:1
16,23:1
16,24:1
16,26:1
16,43:1
17,6:1
17,9:1
17,10:1
17,18:1
17,22:1
17,23:1
17,24:1
17,26:1
17,43:1
18,1:1
18,2:1
18,3:1
18,4:1
18,5:1
18,7:1
18,8:1
18,16:1
18,17:1
18,19:1
18,25:1
18,27:1
18,29:1
18,30:1
18,31:1
18,32:1
18,37:1
18,39:1
19,6:1
19,9:1
19,10:1
19,14:1
19,23:1
19,24:1
19,26:1
19,33:1
19,43:1
20,6:1
20,9:1
20,10:1
20,14:1
20,23:1
20,24:1
20,26:1
20,33:1
20,34:1
20,35:1
20,36:1
20,43:1
21,6:1
21,9:1
21,10:1
21,14:1
21,22:1
21,23:1
21,24:1
21,26:1
21,33:1
21,34:1
21,35:1
21,36:1
21,43:1
22,1:1
22,2:1
22,3:1
22,4:1
22,5:1
22,7:1
22,8:1
22,17:1
22,25:1
22,27:1
22,29:1
22,30:1
22,31:1
22,32:1
22,37:1
22,39:1
23,1:1
23,2:1
23,3:1
23,4:1
23,5:1
23,7:1
23,8:1
23,16:1
23,17:1
23,19:1
23,20:1
23,21:1
23,25:1
23,27:1
23,29:1
23,30:1
23,31:1
23,32:1
23,37:1
23,39:1
24,1:1
24,2:1
24,3:1
24,4:1
24,5:1
24,7:1
24,8:1
24,16:1
24,17:1
24,19:1
24,20:1
24,21:1
24,25:1
24,27:1
24,29:1
24,30:1
24,31:1
24,32:1
24,37:1
24,39:1
25,6:1
25,9:1
25,10:1
25,18:1
25,22:1
25,23:1
25,24:1
25,26:1
25,28:1
25,33:1
25,34:1
25,35:1
25,36:1
25,43:1
26,3:1
26,4:1
26,5:1
26,15:1
26,16:1
26,19:1
26,20:1
26,21:1
26,27:1
26,29:1
26,30:1
26,31:1
26,32:1
26,37:1
26,39:1
27,6:1
27,9:1
27,10:1
27,18:1
27,22:1
27,23:1
27,24:1
27,26:1
27,28:1
27,33:1
27,43:1
28,3:1
28,4:1
28,5:1
28,25:1
28,29:1
28,30:1
28,31:1
28,32:1
28,37:1
28,39:1
29,6:1
29,9:1
29,10:1
29,18:1
29,22:1
29,23:1
29,24:1
29,26:1
29,28:1
29,33:1
29,34:1
29,35:1
29,36:1
29,38:1
29,40:1
29,41:1
29,43:1
30,6:1
30,9:1
30,10:1
30,18:1
30,22:1
30,23:1
30,24:1
30,26:1
30,28:1
30,33:1
30,34:1
30,35:1
30,36:1
30,38:1
30,40:1
30,41:1
30,43:1
31,6:1
31,9:1
31,10:1
31,18:1
31,22:1
31,23:1
31,24:1
31,26:1
31,28:1
31,33:1
31,34:1
31,35:1
31,36:1
31,38:1
31,40:1
31,41:1
31,43:1
32,6:1
32,9:1
32,10:1
32,18:1
32,22:1
32,23:1
32,24:1
32,26:1
32,28:1
32,33:1
32,34:1
32,35:1
32,36:1
32,38:1
32,40:1
32,41:1
32,43:1
33,3:1
33,4:1
33,5:1
33,20:1
33,21:1
33,25:1
33,29:1
33,30:1
33,31:1
33,32:1
33,37:1
33,39:1
34,3:1
34,4:1
34,5:1
34,20:1
34,21:1
34,25:1
34,29:1
34,30:1
34,31:1
34,32:1
34,37:1
34,39:1
35,3:1
35,4:1
35,5:1
35,20:1
35,21:1
35,25:1
35,29:1
35,30:1
35,31:1
35,32:1
35,37:1
35,39:1
36,3:1
36,4:1
36,5:1
36,20:1
36,21:1
36,25:1
36,29:1
36,30:1
36,31:1
36,32:1
36,37:1
36,39:1
37,6:1
37,9:1
37,10:1
37,14:1
37,18:1
37,22:1
37,23:1
37,24:1
37,26:1
37,28:1
37,33:1
37,34:1
37,35:1
37,36:1
37,38:1
37,40:1
37,41:1
37,42:1
37,43:1
37,44:1
37,45:1
38,3:1
38,4:1
38,5:1
38,29:1
38,30:1
38,31:1
38,32:1
38,37:1
38,39:1
39,6:1
39,9:1
39,10:1
39,14:1
39,18:1
39,22:1
39,23:1
39,24:1
39,26:1
39,28:1
39,33:1
39,34:1
39,35:1
39,36:1
39,38:1
39,40:1
39,41:1
39,43:1
40,3:1
40,4:1
40,5:1
40,29:1
40,30:1
40,31:1
40,32:1
40,37:1
40,39:1
41,37:1
42,37:1
43,1:1
43,2:1
43,3:1
43,4:1
43,5:1
43,7:1
43,8:1
43,11:1
43,13:1
43,15:1
43,16:1
43,17:1
43,19:1
43,20:1
43,21:1
43,25:1
43,27:1
43,29:1
43,30:1
43,31:1
43,32:1
43,39:1
44,37:1
45,37:1

<setup times backward>
6,1:1
6,2:1
6,3:1
6,4:1
6,5:1
6,7:1
6,8:1
6,11:1
6,12:1
6,13:1
6,15:1
6,16:1
6,17:1
6,19:1
6,20:1
6,21:1
6,25:1
6,27:1
6,29:1
6,30:1
6,31:1
6,32:1
6,37:1
6,39:1
9,1:1
9,2:1
9,3:1
9,4:1
9,5:1
9,7:1
9,8:1
9,11:1
9,12:1
9,13:1
9,15:1
9,16:1
9,17:1
9,19:1
9,20:1
9,21:1
9,25:1
9,27:1
9,29:1
9,30:1
9,31:1
9,32:1
9,37:1
9,39:1
10,1:1
10,2:1
10,3:1
10,4:1
10,5:1
10,7:1
10,8:1
10,11:1
10,12:1
10,13:1
10,15:1
10,16:1
10,17:1
10,19:1
10,20:1
10,21:1
10,25:1
10,27:1
10,29:1
10,30:1
10,31:1
10,32:1
10,37:1
10,39:1
14,1:1
14,2:1
14,3:1
14,4:1
14,5:1
14,7:1
14,8:1
14,11:1
14,12:1
14,13:1
14,15:1
14,16:1
14,19:1
14,20:1
14,21:1
14,37:1
14,39:1
18,1:1
18,2:1
18,3:1
18,4:1
18,5:1
18,7:1
18,8:1
18,11:1
18,12:1
18,13:1
18,15:1
18,16:1
18,17:1
18,25:1
18,27:1
18,29:1
18,30:1
18,31:1
18,32:1
18,37:1
18,39:1
22,1:1
22,2:1
22,3:1
22,4:1
22,5:1
22,7:1
22,8:1
22,11:1
22,12:1
22,13:1
22,15:1
22,16:1
22,17:1
22,19:1
22,20:1
22,21:1
22,25:1
22,27:1
22,29:1
22,30:1
22,31:1
22,32:1
22,37:1
22,39:1
23,1:1
23,2:1
23,3:1
23,4:1
23,5:1
23,7:1
23,8:1
23,11:1
23,12:1
23,13:1
23,15:1
23,16:1
23,17:1
23,19:1
23,20:1
23,21:1
23,25:1
23,27:1
23,29:1
23,30:1
23,31:1
23,32:1
23,37:1
23,39:1
24,1:1
24,2:1
24,3:1
24,4:1
24,5:1
24,7:1
24,8:1
24,11:1
24,12:1
24,13:1
24,15:1
24,16:1
24,17:1
24,19:1
24,20:1
24,21:1
24,25:1
24,27:1
24,29:1
24,30:1
24,31:1
24,32:1
24,37:1
24,39:1
26,1:1
26,2:1
26,3:1
26,4:1
26,5:1
26,7:1
26,8:1
26,11:1
26,12:1
26,13:1
26,15:1
26,16:1
26,17:1
26,19:1
26,20:1
26,21:1
26,25:1
26,27:1
26,29:1
26,30:1
26,31:1
26,32:1
26,37:1
26,39:1
28,1:1
28,2:1
28,3:1
28,4:1
28,5:1
28,7:1
28,8:1
28,11:1
28,12:1
28,13:1
28,15:1
28,16:1
28,17:1
28,19:1
28,20:1
28,21:1
28,25:1
28,27:1
28,29:1
28,30:1
28,31:1
28,32:1
28,37:1
28,39:1
33,1:1
33,2:1
33,3:1
33,4:1
33,5:1
33,7:1
33,8:1
33,11:1
33,12:1
33,13:1
33,15:1
33,16:1
33,17:1
33,19:1
33,20:1
33,21:1
33,25:1
33,27:1
33,29:1
33,30:1
33,31:1
33,32:1
33,37:1
33,39:1
34,1:1
34,2:1
34,3:1
34,4:1
34,5:1
34,7:1
34,8:1
34,11:1
34,12:1
34,13:1
34,15:1
34,16:1
34,17:1
34,19:1
34,20:1
34,21:1
34,25:1
34,27:1
34,29:1
34,30:1
34,31:1
34,32:1
34,37:1
34,39:1
35,1:1
35,2:1
35,3:1
35,4:1
35,5:1
35,7:1
35,8:1
35,11:1
35,12:1
35,13:1
35,15:1
35,16:1
35,17:1
35,19:1
35,20:1
35,21:1
35,25:1
35,27:1
35,29:1
35,30:1
35,31:1
35,32:1
35,37:1
35,39:1
36,1:1
36,2:1
36,3:1
36,4:1
36,5:1
36,7:1
36,8:1
36,11:1
36,12:1
36,13:1
36,15:1
36,16:1
36,17:1
36,19:1
36,20:1
36,21:1
36,25:1
36,27:1
36,29:1
36,30:1
36,31:1
36,32:1
36,37:1
36,39:1
38,1:1
38,2:1
38,3:1
38,4:1
38,5:1
38,7:1
38,8:1
38,11:1
38,12:1
38,13:1
38,15:1
38,16:1
38,17:1
38,19:1
38,20:1
38,21:1
38,25:1
38,27:1
38,29:1
38,30:1
38,31:1
38,32:1
38,37:1
38,39:1
40,1:1
40,2:1
40,3:1
40,4:1
40,5:1
40,7:1
40,8:1
40,11:1
40,12:1
40,13:1
40,15:1
40,16:1
40,17:1
40,19:1
40,20:1
40,21:1
40,25:1
40,27:1
40,29:1
40,30:1
40,31:1
40,32:1
40,37:1
40,39:1
41,1:1
41,2:1
41,3:1
41,4:1
41,5:1
41,7:1
41,8:1
41,11:1
41,12:1
41,13:1
41,15:1
41,16:1
41,17:1
41,19:1
41,20:1
41,21:1
41,25:1
41,27:1
41,29:1
41,30:1
41,31:1
41,32:1
41,37:1
41,39:1
42,1:1
42,2:1
42,3:1
42,4:1
42,5:1
42,7:1
42,8:1
42,11:1
42,12:1
42,13:1
42,15:1
42,16:1
42,17:1
42,19:1
42,20:1
42,21:1
42,25:1
42,27:1
42,29:1
42,30:1
42,31:1
42,32:1
42,37:1
42,39:1
43,1:1
43,2:1
43,3:1
43,4:1
43,5:1
43,7:1
43,8:1
43,11:1
43,12:1
43,13:1
43,15:1
43,16:1
43,17:1
43,19:1
43,20:1
43,21:1
43,25:1
43,27:1
43,29:1
43,30:1
43,31:1
43,32:1
43,37:1
43,39:1
44,1:1
44,2:1
44,3:1
44,4:1
44,5:1
44,7:1
44,8:1
44,11:1
44,12:1
44,13:1
44,15:1
44,16:1
44,17:1
44,19:1
44,20:1
44,21:1
44,25:1
44,27:1
44,29:1
44,30:1
44,31:1
44,32:1
44,37:1
44,39:1
45,1:1
45,2:1
45,3:1
45,4:1
45,5:1
45,7:1
45,8:1
45,11:1
45,12:1
45,13:1
45,15:1
45,16:1
45,17:1
45,19:1
45,20:1
45,21:1
45,25:1
45,27:1
45,29:1
45,30:1
45,31:1
45,32:1
45,37:1
45,39:1

<end>

<optimal SALBP-1 value>
4


<rand seed>
467321153

<Lower Bounds>
Lm1=4
Lms1=4
Lm2=0
Lm3=1
Lm4=4
Best=4

<Optimal Stations (Iterations: 10)>
5
